SCIP version 5.0.0 [precision: 8 byte] [memory: block] [mode: optimized] [LP solver: NONE] [GitHash: 3bbd232]
Copyright (C) 2002-2017 Konrad-Zuse-Zentrum fuer Informationstechnik Berlin (ZIB)

External codes: 
  Readline EditLine w  GNU library for command line editing (gnu.org/s/readline)
  CppAD 20160000.1     Algorithmic Differentiation of C++ algorithms developed by B. Bell (www.coin-or.org/CppAD)
  ZLIB 1.2.5           General purpose compression library by J. Gailly and M. Adler (zlib.net)
  GMP 6.1.2            GNU Multiple Precision Arithmetic Library developed by T. Granlund (gmplib.org)

user parameter file <scip.set> not found - using default parameters

read problem <../../Split_data/output/seismic-bumps/1/4_sample_seismic-bumps.logreg>
============

File name	:	../../Split_data/output/seismic-bumps/1/4_sample_seismic-bumps.logreg
Problem name 	:	4_sample_seismic-bumps
Number of data	:	2067
Number of var	:	21
The given data has linear dependence
4 sets of column vector are linearly dependent:
{ 2 3}, { 4 5 6}, { 7 8}, { 13 14 15}, 

[dim=1] time: 0.035713
[dim=2] time: 0.072053
[dim=3] time: 0.113693
[dim=4] time: 0.147028
[dim=5] time: 0.175325
[dim=6] time: 0.202806
[dim=7] time: 0.228678
[dim=8] Time of forward = 0.24497sec.
AIC: 887.044
k: 7

[dim=17] time: 0.07888
[dim=16] time: 0.104947
[dim=15] time: 0.140011
[dim=14] time: 0.16645
[dim=13] time: 0.191193
[dim=12] time: 0.21255
[dim=11] time: 0.23297
[dim=10] time: 0.249222
[dim=9] time: 0.265326
[dim=8] time: 0.281823
[dim=7] Time of backward = 0.308552sec.
AIC: 890.466
k: 8
